c Generated map
c Size: 9 * 9, weights in range: 1 to 10, walls: True, with ratio 0.1
c dim 2 of 7
c
p sp 81 118
c graph contains 81 nodes and 118 arcs
c
a 1 10 9
a 10 1 9
a 1 2 8
a 2 1 8
a 2 11 5
a 11 2 5
a 4 13 4
a 13 4 4
a 4 5 4
a 5 4 4
a 5 14 5
a 14 5 5
a 5 6 8
a 6 5 8
a 6 15 10
a 15 6 10
a 6 7 8
a 7 6 8
a 7 16 2
a 16 7 2
a 9 18 8
a 18 9 8
a 10 19 9
a 19 10 9
a 10 11 1
a 11 10 1
a 11 20 7
a 20 11 7
a 11 12 8
a 12 11 8
a 12 13 1
a 13 12 1
a 13 22 5
a 22 13 5
a 13 14 6
a 14 13 6
a 14 23 8
a 23 14 8
a 14 15 8
a 15 14 8
a 15 24 3
a 24 15 3
a 15 16 7
a 16 15 7
a 16 25 7
a 25 16 7
a 18 27 8
a 27 18 8
a 19 28 10
a 28 19 10
a 19 20 8
a 20 19 8
a 20 29 8
a 29 20 8
a 22 31 3
a 31 22 3
a 22 23 9
a 23 22 9
a 23 32 4
a 32 23 4
a 23 24 1
a 24 23 1
a 24 33 6
a 33 24 6
a 24 25 8
a 25 24 8
a 25 34 8
a 34 25 8
a 25 26 9
a 26 25 9
a 26 35 3
a 35 26 3
a 26 27 8
a 27 26 8
a 27 36 7
a 36 27 7
a 28 37 8
a 37 28 8
a 28 29 5
a 29 28 5
a 29 38 1
a 38 29 1
a 31 40 1
a 40 31 1
a 31 32 5
a 32 31 5
a 32 41 8
a 41 32 8
a 32 33 9
a 33 32 9
a 33 42 3
a 42 33 3
a 33 34 8
a 34 33 8
a 34 43 4
a 43 34 4
a 34 35 5
a 35 34 5
a 35 44 6
a 44 35 6
a 35 36 2
a 36 35 2
a 36 45 6
a 45 36 6
a 37 46 10
a 46 37 10
a 37 38 6
a 38 37 6
a 38 47 10
a 47 38 10
a 38 39 5
a 39 38 5
a 39 48 7
a 48 39 7
a 39 40 10
a 40 39 10
a 40 49 6
a 49 40 6
a 40 41 4
a 41 40 4
a 41 50 9
a 50 41 9
a 41 42 9
a 42 41 9
a 42 51 10
a 51 42 10
a 42 43 10
a 43 42 10
a 43 52 10
a 52 43 10
a 43 44 5
a 44 43 5
a 44 53 8
a 53 44 8
a 44 45 7
a 45 44 7
a 45 54 5
a 54 45 5
a 46 55 1
a 55 46 1
a 46 47 7
a 47 46 7
a 47 56 10
a 56 47 10
a 47 48 8
a 48 47 8
a 48 57 6
a 57 48 6
a 48 49 6
a 49 48 6
a 49 58 1
a 58 49 1
a 49 50 10
a 50 49 10
a 50 59 5
a 59 50 5
a 50 51 8
a 51 50 8
a 51 60 7
a 60 51 7
a 51 52 8
a 52 51 8
a 52 61 9
a 61 52 9
a 52 53 9
a 53 52 9
a 53 54 8
a 54 53 8
a 54 63 5
a 63 54 5
a 55 64 10
a 64 55 10
a 55 56 6
a 56 55 6
a 56 65 10
a 65 56 10
a 56 57 2
a 57 56 2
a 57 66 4
a 66 57 4
a 57 58 2
a 58 57 2
a 58 67 7
a 67 58 7
a 58 59 3
a 59 58 3
a 59 68 3
a 68 59 3
a 59 60 5
a 60 59 5
a 60 69 3
a 69 60 3
a 60 61 2
a 61 60 2
a 61 70 4
a 70 61 4
a 64 73 6
a 73 64 6
a 64 65 1
a 65 64 1
a 65 74 4
a 74 65 4
a 65 66 9
a 66 65 9
a 66 75 5
a 75 66 5
a 66 67 9
a 67 66 9
a 67 76 3
a 76 67 3
a 67 68 6
a 68 67 6
a 68 69 8
a 69 68 8
a 69 78 1
a 78 69 1
a 69 70 2
a 70 69 2
a 70 79 10
a 79 70 10
a 70 71 10
a 71 70 10
a 71 80 5
a 80 71 5
a 73 74 10
a 74 73 10
a 74 75 6
a 75 74 6
a 75 76 1
a 76 75 1
a 78 79 1
a 79 78 1
a 79 80 3
a 80 79 3
a 80 81 2
a 81 80 2
